%mem=500MW
%nproc=7
#p Temperature=358.15 int=(grid=ultrafine) CPHF=(grid=fine) freq rb3lyp/aug-cc-pvdz

p-NO2-Ph-F-BF3-RB3LYP-aug-cc-pVDZ--

0 1
C          -2.03255         1.34754         0.00000
C          -0.67730         1.67453        -0.00000
C           0.25100         0.63745        -0.00001
C          -0.10493        -0.70800        -0.00002
C          -1.46166        -1.03044        -0.00001
C          -2.40355         0.00089        -0.00000
H          -2.79967         2.11752         0.00001
H          -0.34035         2.70925        -0.00000
H           0.66477        -1.47691        -0.00003
H          -1.79597        -2.06469        -0.00001
N          -3.83726        -0.34284         0.00001
O          -4.13900        -1.53375         0.00000
O          -4.64611         0.58202         0.00002
F           1.57302         0.96173        -0.00002
B           3.92141        -0.34830         0.00001
F           3.29706        -1.52426        -0.00001
F           4.25271         0.22227         1.14986
F           4.25275         0.22229        -1.14981


nprocshared=7
