%mem=500MW
%nproc=7
#p Temperature=353.15 int=(grid=ultrafine) CPHF=(grid=fine) freq rb3lyp/aug-cc-pvdz

p-NO2-Ph-N2-BF4-RB3LYP-aug-cc-pVDZ--

0 1
C          -1.54133        -0.88704        -0.42718
C          -0.24699        -0.37824        -0.52197
C          -0.07693         0.97671        -0.21089
C          -1.11041         1.83915         0.19461
C          -2.38930         1.30554         0.29150
C          -2.57572        -0.04332        -0.02389
H          -1.74759        -1.93005        -0.65329
H           0.61808        -0.97462        -0.81092
H          -0.91248         2.88311         0.42885
H          -3.23465         1.91256         0.60424
N          -3.95324        -0.60279         0.07729
O          -4.10100        -1.78093        -0.21661
O          -4.83881         0.15956         0.44566
N           1.19638         1.54984        -0.31458
N           2.15239         2.10572        -0.40828
B           3.18082        -0.69351         0.19332
F           2.56081        -0.82875        -1.10627
F           3.89426        -1.82374         0.52685
F           3.97408         0.47912         0.16309
F           2.10044        -0.45982         1.12056


nprocshared=7
