%mem=500MW
%nproc=7
#p scrf=(cpcm,solvent=water) opt=(cartesian,tight,maxcycles=2000) scf=(tight,maxcycles=700) NoSymm  Temperature=348.15 int=(grid=ultrafine) CPHF=(grid=fine) freq rb3lyp/aug-cc-pvdz

p-NO2-Ph-OTf-RB3LYP-aug-cc-pVDZ--

0 1
C           2.54776         1.22329        -0.19697
C           1.16271         1.22292        -0.35700
C           0.49430        -0.00000        -0.43717
C           1.16271        -1.22293        -0.35698
C           2.54776        -1.22330        -0.19695
C           3.21589        -0.00000        -0.12040
H           3.11059         2.15079        -0.13253
H           0.60239         2.15318        -0.42242
H           0.60239        -2.15319        -0.42238
S          -1.89201         0.00002         0.67222
C          -3.48621        -0.00001        -0.37359
O          -0.88932        -0.00001        -0.68028
O          -1.78773        -1.28762         1.37798
O          -1.78774         1.28768         1.37792
F          -3.52837         1.09202        -1.13375
F          -3.52836        -1.09208        -1.13370
F          -4.51026         0.00000         0.48169
H           3.11059        -2.15080        -0.13249
N           4.68471        -0.00000         0.04516
O           5.25031         1.08790         0.10872
O           5.25031        -1.08790         0.10873


nprocshared=7
