%mem=500MW
%nproc=7
#p opt=(verytight,maxcycles=1000) int=(grid=ultrafine) CPHF=(grid=fine) freq rb3lyp/aug-cc-pvdz

m-NO2-Ph-OTf-RB3LYP-aug-cc-pVDZ

0 1
C          -1.83510        -0.92060        -6.23170
C          -0.45150        -0.81130        -6.30960
C           0.09300         0.45320        -6.07420
C          -0.63180         1.59970        -5.74120
C          -2.01370         1.46660        -5.66850
C          -2.58250         0.21640        -5.91940
H          -2.33330        -1.86660        -6.38740
H           0.18940        -1.66250        -6.48940
H          -0.12410         2.52330        -5.50260
S           1.94950         0.34760        -4.78460
C           3.77330         0.50500        -4.86890
O           1.49520         0.57730        -6.15530
O           1.58630         1.38100        -3.76840
O           1.77270        -1.03000        -4.23400
F           4.30510        -0.40800        -5.69590
F           4.14020         1.72700        -5.28390
F           4.31970         0.30910        -3.63500
H          -3.64740         0.12500        -5.86980
N          -2.87340         2.60340        -5.30880
O          -3.97710         2.65390        -5.77530
O          -2.43660         3.43510        -4.56310


nprocshared=7
