%mem=500MW
%nproc=7
#p opt=(verytight,maxcycles=1000) SCF=(maxcycles=1024) int=(grid=ultrafine) CPHF=(grid=fine) freq rb3lyp/aug-cc-pvdz

m-NO2-Ph-Ph-m-NO2-RB3LYP-aug-cc-pVDZ--

0 1
C           3.09197        -0.19192        -0.04155
C           1.83820         0.42009        -0.04226
C           0.69185        -0.33773         0.19595
C           0.79885        -1.70853         0.43378
C           2.05225        -2.32055         0.43389
C           3.19898        -1.56215         0.19663
H           1.75429         1.50049        -0.22929
H          -0.14515        -2.30594         0.62142
H           2.13685        -3.40091         0.62134
H           4.18699        -2.04468         0.19703
C          -0.69199         0.33796         0.19611
C          -0.79891         1.70856         0.43356
C          -1.83845        -0.42027        -0.04117
C          -2.05214         2.32073         0.43436
H           0.10500         2.30598         0.62134
C          -3.03205         0.19202        -0.04145
H          -1.75430        -1.50044        -0.22855
C          -3.19910         1.56227         0.19646
H          -2.13658         3.40098         0.62210
H          -4.18706         2.04511         0.19702
N           4.30005         0.60714        -0.29210
O           4.17464         1.78278        -0.49358
O           5.36291         0.05157        -0.28489
N          -4.29996        -0.60727        -0.29217
O          -4.15433        -1.78289        -0.49327
O          -5.36290        -0.05178        -0.28557


nprocshared=7
