%mem=500MW
%nproc=7
#p Temperature=348.15 int=(grid=ultrafine) CPHF=(grid=fine) freq rb3lyp/aug-cc-pvdz

p-NO2-Ph-N2-OTs-RB3LYP-aug-cc-pVDZ--

0 1
C           2.87135         0.30389        -1.12845
C           1.99738        -0.77939        -1.11490
C           2.01019        -1.65870        -0.02259
C           2.90576        -1.48162         1.03922
C           3.76394        -0.38400         1.03947
C           3.73403         0.49236        -0.04612
H           2.88856         1.00514        -1.95874
H           1.31036        -0.94529        -1.94135
H           2.92125        -2.20022         1.85682
H           4.45831        -0.20813         1.85690
N           4.64818         1.65005        -0.05537
O           5.39931         1.79231         0.90631
O           4.60299         2.40544        -1.02348
N           1.21651        -2.84866        -0.01764
N           0.00256        -2.89306        -0.04895
C          -2.84941         0.76546        -1.15496
C          -3.12922         2.12822        -1.07066
C          -3.24325         2.77350         0.17400
C          -3.07369         2.01428         1.34230
C          -2.79331         0.64756         1.28357
C          -2.68360         0.04409         0.03055
H          -2.77593         0.26171        -2.11691
H          -3.26732         2.70091        -1.98873
H          -3.16664         2.49642         2.31579
H          -2.67567         0.05625         2.18971
S          -2.32835        -1.70861        -0.06094
O          -0.61693        -1.54026        -0.03509
O          -2.70205        -2.24396        -1.38611
O          -2.73126        -2.38680         1.18722
C          -3.54948         4.24928         0.24071
H          -2.78043         4.83406        -0.28436
H          -4.51228         4.47236        -0.24150
H          -3.59795         4.60277         1.27752


nprocshared=7
