%mem=500MW
%nproc=7
#p opt=(verytight,maxcycles=1000) SCF=(maxcycles=1024) int=(grid=ultrafine) CPHF=(grid=fine) freq rb3lyp/aug-cc-pvdz

p-NO2-Ph-Ph-p-NO2-RB3LYP-aug-cc-pVDZ--

0 1
C          -0.78005         0.00043         0.00005
C          -1.40755        -1.18635        -0.22657
C          -2.86226        -1.18653        -0.22711
C          -3.56008         0.00025         0.00041
C          -2.86262         1.18670         0.22755
C          -1.46746         1.18679         0.22701
H          -0.91739        -2.12136        -0.40624
H          -3.41217        -2.12184        -0.40644
H          -3.41228         2.12218         0.40684
H          -0.91788         2.12234         0.40587
N          -5.07007        -0.00025        -0.00007
O          -5.59989        -1.03672        -0.19847
O          -5.63080         1.03584         0.19800
C           0.77000         0.00039        -0.00011
C           1.46751        -1.18641         0.22645
C           1.46752         1.18682        -0.22681
C           2.86229        -1.18656         0.22695
H           0.91736        -2.12145         0.40596
C           2.86258         1.18671        -0.22740
H           0.91782         2.12234        -0.40563
C           3.56007         0.00033        -0.00043
H           3.41210        -2.12187         0.40611
H           3.41235         2.12222        -0.40659
N           5.04005        -0.00030         0.00006
O           5.57994        -1.03663         0.19890
O           5.61083         1.03575        -0.19840


nprocshared=7
