%mem=500MW
%nproc=7
#p opt=(verytight,maxcycles=1000) int=(grid=ultrafine) CPHF=(grid=fine) freq rb3lyp/aug-cc-pvdz

p-NO2-Ph-F-BF3-RB3LYP-aug-cc-pVDZ

0 1
C           6.93560         0.16710         5.78090
C           6.86500         0.01750         4.39710
C           5.99570         0.83470         3.68280
C           5.19080         1.79600         4.28370
C           5.26120         1.94650         5.66800
C           6.13140         1.13020         6.38880
H           7.59430        -0.44220         6.38260
H           7.46660        -0.71310         3.87390
H           4.53030         2.40080         3.67990
H           4.65800         2.67770         6.18610
N           6.20410         1.29060         7.84870
O           5.14340         1.51570         8.45450
O           7.32180         1.19070         8.38140
F           5.94130         0.67550         2.32610
B           4.30890         1.27290         0.60190
F           3.37650         1.59570         1.49790
F           4.35850         0.03960         0.12200
F           5.11690         2.21100         0.13050


nprocshared=7
