%mem=500MW
%nproc=7
#p opt=(verytight,maxcycles=1000) int=(grid=ultrafine) CPHF=(grid=fine) freq rb3lyp/aug-cc-pvdz

p-NO2-Ph-F-RB3LYP-aug-cc-pVDZ

0 1
C          -1.96540        -0.29350        -0.37880
C          -0.57080        -0.29020        -0.37760
C           0.11650         0.86670        -0.00020
C          -0.57100         2.02360         0.37700
C          -1.96560         2.02690         0.37750
C          -2.63470         0.86670        -0.00080
H          -2.52020        -1.17750        -0.66680
H          -0.02020        -1.17570        -0.66630
H          -0.02040         2.90910         0.66590
H          -2.52040         2.91090         0.66520
N          -4.09520         0.86670        -0.00110
O          -4.65820         0.53330        -1.05850
O          -4.65860         1.20150         1.05560
F           1.46650         0.86670         0.00010


nprocshared=7
