%mem=500MW
%nproc=7
#p opt=(verytight,maxcycles=1000) int=(grid=ultrafine) CPHF=(grid=fine) freq rb3lyp/aug-cc-pvdz

p-NO2-Ph-N2-OTs-RB3LYP-aug-cc-pVDZ

0 1
C           0.25850        -0.11390        -2.83850
C           0.54040         0.87510        -3.77660
C           0.36930         2.22230        -3.42700
C          -0.10680         2.58730        -2.16170
C          -0.36560         1.60020        -1.21300
C          -0.17970         0.26320        -1.56690
H           0.37960        -1.16770        -3.07530
H           0.88970         0.60920        -4.77150
H          -0.26690         3.63860        -1.92870
H          -0.71880         1.85130        -0.21630
N          -0.46300        -0.78610        -0.56940
O          -0.84990        -0.42930         0.54060
O          -0.29310        -1.95530        -0.90690
N           0.53110         3.26630        -4.39110
N           1.55910         3.53970        -4.97820
C           5.43930         0.76990        -5.16700
C           6.31530        -0.10550        -4.52770
C           6.97430         0.26040        -3.34010
C           6.73670         1.53650        -2.80580
C           5.86380         2.43130        -3.42840
C           5.22560         2.03050        -4.60250
H           4.94080         0.49400        -6.09430
H           6.49540        -1.08980        -4.96210
H           7.24520         1.84000        -1.89040
H           5.69060         3.42580        -3.02170
S           4.10910         3.16980        -5.41660
O           2.70480         2.69260        -4.54620
O           3.91040         2.77970        -6.82760
O           4.41980         4.56250        -5.03710
C           7.92060        -0.70280        -2.66710
H           7.40500        -1.63580        -2.39740
H           8.74910        -0.97220        -3.33820
H           8.34830        -0.27320        -1.75350


nprocshared=7
