%mem=500MW
%nproc=7
#p scrf=(cpcm,solvent=water) opt Temperature=348.15 int=(grid=ultrafine) CPHF=(grid=fine) freq rb3lyp/aug-cc-pvdz

o-NO2-Ph-N2-OTf-RB3LYP-aug-cc-pVDZ--

0 1
C           1.35938         2.34203        -0.65128
C           0.88362         1.02714        -0.68714
C           1.77313         0.00674        -0.33232
C           3.10828         0.26795         0.03822
C           3.55519         1.57946         0.07006
C           2.67529         2.61598        -0.27520
H           0.68070         3.15100        -0.91796
H          -0.14098         0.76238        -0.98694
N           1.26297        -1.29171        -0.37623
N           0.57186        -2.16649        -0.38915
S          -2.34915        -0.82339        -0.30791
C          -3.17848         0.67319         0.51595
O          -1.69824        -0.22144        -1.53437
O          -3.44510        -1.79155        -0.54383
O          -1.31269        -1.21812         0.73482
F          -2.25850         1.64506         0.74724
F          -4.12993         1.18426        -0.28042
F          -3.73158         0.33416         1.68879
H           3.03202         3.64509        -0.24692
H           4.58317         1.77466         0.36563
N           4.03207        -0.82296         0.39995
O           3.57679        -1.96474         0.37229
O           5.17734        -0.52128         0.69615


nprocshared=7
