%mem=500MW
%nproc=7
#p Temperature=348.15 int=(grid=ultrafine) CPHF=(grid=fine) freq rb3lyp/aug-cc-pvdz

p-NO2-Ph-Ph-p-NO2-RB3LYP-aug-cc-pVDZ--

0 1
C          -0.74218         0.00000        -0.00002
C          -1.46229        -1.14410        -0.39495
C          -2.85518        -1.15185        -0.39948
C          -3.53394         0.00000        -0.00010
C          -2.85520         1.15185         0.39931
C          -1.46231         1.14410         0.39487
H          -0.92813        -2.03200        -0.72998
H          -3.41790        -2.02739        -0.71313
H          -3.41794         2.02739         0.71293
H          -0.92817         2.03200         0.72993
N          -5.00940         0.00000        -0.00014
O          -5.58022        -1.02971        -0.35144
O          -5.58024         1.02971         0.35112
C           0.74218         0.00000         0.00002
C           1.46229        -1.14399         0.39527
C           1.46231         1.14399        -0.39518
C           2.85518        -1.15174         0.39980
H           0.92813        -2.03180         0.73055
C           2.85520         1.15174        -0.39963
H           0.92817         2.03180        -0.73049
C           3.53394         0.00000         0.00010
H           3.41790        -2.02719         0.71369
H           3.41794         2.02719        -0.71350
N           5.00940         0.00000         0.00014
O           5.58022        -1.02961         0.35173
O           5.58024         1.02961        -0.35141


nprocshared=7
